Route 1: 154 92 4 142 153 47 6 28 163 49 14 63 149 120 135 5 197 162 132 78 171 130 187 150 174 97 113 176 69 191 134 58 144 71 88 87 121 115 11 13 17 66 82 65 81 195 16 119 161 64 30 139 29 173 12 9 89 67
Route 2: 182 140 54 37 100 85 128 59 143 56 45 108 99 168 94 151 38 23 188 21 166 86 114 52 129 106 22 194 41 55 117 74 32 165 177 33 107 158 70 183 80 51 91 148 116 83 18 179 110 36 102
Route 3: 152 15 156 131 48 24 169 167 196 68 7 180 124 43 190 98 136 3 184 72 27 198 111 95 44 90 145 103 79 126 178 73 122 96 8 2 76 141 10 193 185 19 146 93 200 39 34 175
Route 4: 147 133 57 40 31 61 53 112 160 109 189 125 101 192 50 137 123 60 1 157 75
Route 5: 42 84 199 155 118 127 105 26 25 159 138 46 20 77 186
Route 6: 172 181 164 104 35 62 170
Vehicles: 6
Distance: 4324.74
